row=9;
column=9;

Board=[|5,0,0,0,7,2,0,8,0|0,0,8,0,3,1,4,5,6|4,0,1,6,8,5,7,0,0|0,9,6,2,0,0,1,7,0|3,0,0,7,1,6,8,0,2|7,1,2,8,9,4,0,6,0|9,2,3,5,4,8,0,0,0|6,4,0,1,0,7,9,3,8|1,8,0,3,6,0,2,4,0|];
